
Gurobi 9.0.1 (linux64) logging started Thu Apr 30 05:57:47 2020

Gurobi Optimizer version 9.0.1 build v9.0.1rc0 (linux64)
Optimize a model with 932 rows, 990 columns and 7056 nonzeros
Model fingerprint: 0x2ebc52ad
Variable types: 0 continuous, 990 integer (980 binary)
Coefficient statistics:
  Matrix range     [1e+00, 5e+00]
  Objective range  [6e+00, 1e+02]
  Bounds range     [1e+00, 1e+00]
  RHS range        [1e+00, 1e+00]

User MIP start produced solution with objective 495 (0.00s)
Loaded user MIP start with objective 495

Presolve removed 338 rows and 420 columns
Presolve time: 0.04s
Presolved: 594 rows, 570 columns, 4662 nonzeros
Variable types: 0 continuous, 570 integer (562 binary)

Root relaxation: objective 3.847771e+02, 428 iterations, 0.02 seconds

    Nodes    |    Current Node    |     Objective Bounds      |     Work
 Expl Unexpl |  Obj  Depth IntInf | Incumbent    BestBd   Gap | It/Node Time

     0     0  384.77712    0  187  495.00000  384.77712  22.3%     -    0s
     0     0  402.67076    0  195  495.00000  402.67076  18.7%     -    0s
     0     0  403.81803    0  209  495.00000  403.81803  18.4%     -    0s
     0     0  404.04510    0  205  495.00000  404.04510  18.4%     -    0s
     0     0  411.31577    0  224  495.00000  411.31577  16.9%     -    0s
     0     0  411.68500    0  220  495.00000  411.68500  16.8%     -    0s
     0     0  418.29457    0  209  495.00000  418.29457  15.5%     -    0s
     0     0  418.77868    0  224  495.00000  418.77868  15.4%     -    0s
     0     0  418.81055    0  226  495.00000  418.81055  15.4%     -    0s
     0     0  418.81684    0  222  495.00000  418.81684  15.4%     -    0s
     0     0  427.47623    0  226  495.00000  427.47623  13.6%     -    0s
     0     0  427.98594    0  226  495.00000  427.98594  13.5%     -    0s
     0     0  428.01935    0  233  495.00000  428.01935  13.5%     -    0s
     0     0  428.02517    0  234  495.00000  428.02517  13.5%     -    0s
     0     0  429.30861    0  228  495.00000  429.30861  13.3%     -    0s
     0     0  429.46300    0  226  495.00000  429.46300  13.2%     -    0s
     0     0  429.47394    0  228  495.00000  429.47394  13.2%     -    0s
     0     0  431.98298    0  232  495.00000  431.98298  12.7%     -    0s
     0     0  432.14354    0  235  495.00000  432.14354  12.7%     -    0s
     0     0  432.20593    0  234  495.00000  432.20593  12.7%     -    0s
     0     0  432.21404    0  235  495.00000  432.21404  12.7%     -    0s
     0     0  432.66638    0  232  495.00000  432.66638  12.6%     -    0s
     0     0  432.67536    0  230  495.00000  432.67536  12.6%     -    0s
     0     0  432.77009    0  234  495.00000  432.77009  12.6%     -    1s
     0     0  432.77009    0  234  495.00000  432.77009  12.6%     -    1s
     0     2  432.98558    0  234  495.00000  432.98558  12.5%     -    1s
H   27    15                     488.0000000  444.12709  8.99%   134    1s
H   59    27                     480.0000000  444.75071  7.34%  90.3    1s
H   64     6                     456.0000000  444.75071  2.47%  84.2    1s

Cutting planes:
  MIR: 22
  StrongCG: 1
  Zero half: 12
  RLT: 95

Explored 75 nodes (8087 simplex iterations) in 1.75 seconds
Thread count was 1 (of 40 available processors)

Solution count 4: 456 480 488 495 

Optimal solution found (tolerance 1.00e-04)
Best objective 4.560000000000e+02, best bound 4.560000000000e+02, gap 0.0000%

User-callback calls 696, time in user-callback 0.00 sec
